\ Model Q2
\ LP format - for model browsing. Use MPS format to capture full model detail.
Minimize
  75 C24 + 88 C25 + 103 C26 + 56 C27 + 105 C28 + 76 C29 + 101 C30 + 85 C31
   + 43 C32 + 80 C33 + 95 C34 + 62 C35 + 75 C36 + 88 C37 + 103 C38 + 56 C39
   + 105 C40 + 76 C41 + 101 C42 + 85 C43 + 43 C44 + 80 C45 + 95 C46
   + 62 C47
Subject To
 R0: C0 + C1 + C2 + C3 + C4 + C5 + C6 + C7 + C8 + C9 + C10 + C11 <= 1200
 R1: C12 + C13 + C14 + C15 + C16 + C17 + C18 + C19 + C20 + C21 + C22 + C23
   <= 1120
 R2: C0 - 1200 C24 <= 0
 R3: C12 - 1120 C36 <= 0
 R4: C24 + C36 = 1
 R5: C1 - 1200 C25 <= 0
 R6: C13 - 1120 C37 <= 0
 R7: C25 + C37 = 1
 R8: C2 - 1200 C26 <= 0
 R9: C14 - 1120 C38 <= 0
 R10: C26 + C38 = 1
 R11: C3 - 1200 C27 <= 0
 R12: C15 - 1120 C39 <= 0
 R13: C27 + C39 = 1
 R14: C4 - 1200 C28 <= 0
 R15: C16 - 1120 C40 <= 0
 R16: C28 + C40 = 1
 R17: C5 - 1200 C29 <= 0
 R18: C17 - 1120 C41 <= 0
 R19: C29 + C41 = 1
 R20: C6 - 1200 C30 <= 0
 R21: C18 - 1120 C42 <= 0
 R22: C30 + C42 = 1
 R23: C7 - 1200 C31 <= 0
 R24: C19 - 1120 C43 <= 0
 R25: C31 + C43 = 1
 R26: C8 - 1200 C32 <= 0
 R27: C20 - 1120 C44 <= 0
 R28: C32 + C44 = 1
 R29: C9 - 1200 C33 <= 0
 R30: C21 - 1120 C45 <= 0
 R31: C33 + C45 = 1
 R32: C10 - 1200 C34 <= 0
 R33: C22 - 1120 C46 <= 0
 R34: C34 + C46 = 1
 R35: C11 - 1200 C35 <= 0
 R36: C23 - 1120 C47 <= 0
 R37: C35 + C47 = 1
 R38: C0 + C4 + C8 + C12 + C16 + C20 >= 500
 R39: C1 + C5 + C9 + C13 + C17 + C21 >= 600
 R40: C2 + C6 + C10 + C14 + C18 + C22 >= 450
 R41: C3 + C7 + C11 + C15 + C19 + C23 >= 700
Bounds
Binaries
 C24 C25 C26 C27 C28 C29 C30 C31 C32 C33 C34 C35 C36 C37 C38 C39 C40 C41
 C42 C43 C44 C45 C46 C47
Generals
 C0 C1 C2 C3 C4 C5 C6 C7 C8 C9 C10 C11 C12 C13 C14 C15 C16 C17 C18 C19 C20
 C21 C22 C23
End
